NAME: input
TYPE: CVRP
DIMENSION: 5
EDGE_WEIGHT_TYPE: EXPLICIT
EDGE_WEIGHT_FORMAT: FULL_MATRIX
EDGE_WEIGHT_UNIT_OF_MEASUREMENT: km
CAPACITY: 100
NODE_COORD_SECTION
0 -27.398992 153.065599
1 -27.569635 153.087838
2 -27.477356 153.028423
3 -27.453311 153.03491
4 -27.595365 153.069113
EDGE_WEIGHT_SECTION
0.000 24297.087 0.000 8698.124 26106.132 
23500.550 0.000 0.000 17917.312 12698.787 
12569.329 14389.593 0.000 4408.244 16198.638 
8739.544 16177.529 0.000 0.000 17986.574 
26039.923 5424.980 0.000 20456.685 0.000 
